c Created with the Wolfram Language : www.wolfram.com
c 
p edge 70 365
e 6 7
e 4 8
e 5 8
e 7 8
e 3 10
e 5 10
e 6 10
e 9 11
e 10 12
e 2 13
e 4 13
e 10 13
e 2 14
e 12 14
e 13 14
e 8 15
e 5 16
e 8 16
e 6 17
e 7 17
e 8 17
e 1 18
e 3 18
e 5 18
e 13 19
e 6 20
e 11 20
e 17 20
e 6 21
e 11 21
e 12 21
e 15 21
e 19 21
e 1 22
e 2 23
e 5 23
e 6 23
e 15 23
e 3 24
e 4 24
e 15 24
e 18 24
e 20 24
e 2 25
e 6 25
e 8 25
e 17 25
e 18 25
e 23 25
e 24 25
e 2 26
e 4 26
e 8 26
e 12 26
e 19 26
e 3 27
e 22 27
e 23 27
e 25 27
e 1 28
e 12 28
e 15 28
e 1 29
e 9 29
e 25 29
e 5 30
e 6 30
e 9 30
e 11 30
e 25 30
e 26 30
e 2 31
e 16 31
e 26 31
e 28 31
e 4 32
e 9 32
e 13 32
e 28 32
e 29 32
e 8 33
e 30 33
e 6 34
e 7 34
e 14 34
e 28 34
e 31 34
e 1 35
e 14 35
e 16 35
e 5 36
e 7 36
e 15 36
e 17 36
e 22 36
e 25 36
e 27 36
e 34 36
e 2 37
e 12 37
e 13 37
e 25 37
e 26 37
e 30 37
e 2 38
e 8 38
e 5 39
e 11 39
e 15 39
e 23 39
e 24 39
e 25 39
e 32 39
e 37 39
e 2 40
e 12 40
e 24 40
e 39 40
e 7 41
e 12 41
e 16 41
e 11 42
e 14 42
e 18 42
e 19 42
e 29 42
e 33 42
e 38 42
e 39 42
e 40 42
e 3 43
e 8 43
e 11 43
e 17 43
e 29 43
e 42 43
e 1 44
e 8 44
e 11 44
e 16 44
e 19 44
e 21 44
e 26 44
e 31 44
e 32 44
e 39 44
e 40 44
e 2 45
e 14 45
e 15 45
e 30 45
e 33 45
e 34 45
e 39 45
e 43 45
e 1 46
e 11 46
e 14 46
e 18 46
e 20 46
e 27 46
e 31 46
e 41 46
e 43 46
e 7 47
e 10 47
e 27 47
e 28 47
e 32 47
e 39 47
e 5 48
e 10 48
e 12 48
e 15 48
e 27 48
e 40 48
e 41 48
e 8 49
e 9 49
e 11 49
e 13 49
e 18 49
e 28 49
e 34 49
e 10 50
e 15 50
e 18 50
e 28 50
e 41 50
e 45 50
e 47 50
e 7 51
e 15 51
e 21 51
e 22 51
e 25 51
e 26 51
e 29 51
e 32 51
e 33 51
e 35 51
e 49 51
e 4 52
e 12 52
e 31 52
e 34 52
e 35 52
e 37 52
e 9 53
e 17 53
e 20 53
e 28 53
e 32 53
e 34 53
e 37 53
e 47 53
e 51 53
e 15 54
e 18 54
e 21 54
e 24 54
e 27 54
e 37 54
e 53 54
e 8 55
e 12 55
e 13 55
e 16 55
e 27 55
e 29 55
e 37 55
e 39 55
e 50 55
e 3 56
e 6 56
e 12 56
e 13 56
e 16 56
e 27 56
e 28 56
e 32 56
e 46 56
e 55 56
e 18 57
e 28 57
e 37 57
e 39 57
e 46 57
e 47 57
e 1 58
e 2 58
e 4 58
e 6 58
e 19 58
e 22 58
e 24 58
e 28 58
e 47 58
e 4 59
e 9 59
e 24 59
e 27 59
e 38 59
e 46 59
e 20 60
e 22 60
e 23 60
e 25 60
e 32 60
e 38 60
e 44 60
e 57 60
e 12 61
e 32 61
e 34 61
e 38 61
e 39 61
e 42 61
e 47 61
e 3 62
e 5 62
e 13 62
e 21 62
e 26 62
e 31 62
e 32 62
e 36 62
e 43 62
e 58 62
e 7 63
e 8 63
e 11 63
e 20 63
e 28 63
e 34 63
e 36 63
e 42 63
e 47 63
e 60 63
e 12 64
e 13 64
e 43 64
e 49 64
e 51 64
e 54 64
e 59 64
e 60 64
e 1 65
e 3 65
e 5 65
e 19 65
e 25 65
e 27 65
e 34 65
e 43 65
e 44 65
e 45 65
e 57 65
e 1 66
e 4 66
e 5 66
e 9 66
e 11 66
e 28 66
e 33 66
e 44 66
e 48 66
e 59 66
e 62 66
e 7 67
e 13 67
e 16 67
e 29 67
e 31 67
e 35 67
e 36 67
e 39 67
e 54 67
e 61 67
e 62 67
e 11 68
e 21 68
e 27 68
e 29 68
e 42 68
e 49 68
e 54 68
e 8 69
e 17 69
e 26 69
e 57 69
e 65 69
e 67 69
e 5 70
e 6 70
e 7 70
e 14 70
e 15 70
e 18 70
e 27 70
e 39 70
e 47 70
e 48 70
e 55 70
e 66 70
